min: c;

c = 3.71142020069224 * u2_t7_h3 + 3.47528183267688 * u2_t7_h4 + 4.01906645984025 * u2_t2_h5 + 4.01906645984025 * u2_t3_h5 + 4.01906645984025 * u2_t7_h5 + 3.55980450490039 * u2_t2_h6 + 3.55980450490039 * u2_t3_h6 + 3.55980450490039 * u2_t4_h6 + 3.55980450490039 * u2_t7_h6 + 3.55980450490039 * u2_t10_h6 + 4.09373673120588 * u2_t2_h7 + 4.09373673120588 * u2_t3_h7 + 4.09373673120588 * u2_t4_h7 + 4.09373673120588 * u2_t7_h7 + 4.09373673120588 * u2_t10_h7 + 5.03435758113366 * u2_t2_h8 + 5.03435758113366 * u2_t3_h8 + 5.03435758113366 * u2_t4_h8 + 5.03435758113366 * u2_t7_h8 + 5.03435758113366 * u2_t10_h8 + 4.73035042531013 * u2_t2_h9 + 4.73035042531013 * u2_t3_h9 + 4.73035042531013 * u2_t4_h9 + 4.73035042531013 * u2_t7_h9 + 4.73035042531013 * u2_t10_h9 + 5.28887877683838 * u2_t2_h10 + 5.28887877683838 * u2_t3_h10 + 5.28887877683838 * u2_t4_h10 + 5.28887877683838 * u2_t7_h10 + 5.28887877683838 * u2_t10_h10 + 3.64113784881666 * u2_t1_h11 + 3.64113784881666 * u2_t2_h11 + 3.64113784881666 * u2_t3_h11 + 3.64113784881666 * u2_t4_h11 + 3.64113784881666 * u2_t7_h11 + 3.64113784881666 * u2_t10_h11 + 6.61934911228908 * u2_t1_h12 + 6.61934911228908 * u2_t3_h12 + 6.61934911228908 * u2_t4_h12 + 6.61934911228908 * u2_t7_h12 + 4.43821084519347 * u2_t1_h13 + 4.43821084519347 * u2_t3_h13 + 4.43821084519347 * u2_t4_h13 + 4.43821084519347 * u2_t7_h13 + 4.43821084519347 * u2_t9_h13 + 5.5502152988653 * u2_t1_h14 + 5.5502152988653 * u2_t3_h14 + 5.5502152988653 * u2_t4_h14 + 5.5502152988653 * u2_t7_h14 + 5.5502152988653 * u2_t9_h14 + 6.01603364717817 * u2_t1_h15 + 6.01603364717817 * u2_t3_h15 + 6.01603364717817 * u2_t4_h15 + 6.01603364717817 * u2_t7_h15 + 6.01603364717817 * u2_t9_h15 + 6.25721219912356 * u2_t1_h16 + 6.25721219912356 * u2_t3_h16 + 6.25721219912356 * u2_t4_h16 + 6.25721219912356 * u2_t7_h16 + 6.25721219912356 * u2_t9_h16 + 6.71996505501533 * u2_t1_h17 + 6.71996505501533 * u2_t3_h17 + 6.71996505501533 * u2_t4_h17 + 6.71996505501533 * u2_t7_h17 + 6.71996505501533 * u2_t9_h17 + 6.5354712182655 * u2_t1_h18 + 6.5354712182655 * u2_t3_h18 + 6.5354712182655 * u2_t4_h18 + 6.5354712182655 * u2_t6_h18 + 6.5354712182655 * u2_t7_h18 + 6.07735787951009 * u2_t1_h19 + 6.07735787951009 * u2_t3_h19 + 6.07735787951009 * u2_t4_h19 + 6.07735787951009 * u2_t5_h19 + 6.07735787951009 * u2_t6_h19 + 6.07735787951009 * u2_t7_h19 + 5.52958183224246 * u2_t1_h20 + 5.52958183224246 * u2_t3_h20 + 5.52958183224246 * u2_t4_h20 + 5.52958183224246 * u2_t6_h20 + 5.52958183224246 * u2_t7_h20 + 5.01883471106026 * u2_t1_h21 + 5.01883471106026 * u2_t3_h21 + 5.01883471106026 * u2_t6_h21 + 5.01883471106026 * u2_t7_h21 + 5.01883471106026 * u2_t8_h21 + 5.88225009243283 * u2_t1_h22 + 5.88225009243283 * u2_t3_h22 + 5.88225009243283 * u2_t7_h22 + 5.88225009243283 * u2_t8_h22 + 4.99615666492031 * u2_t3_h23 + 4.99615666492031 * u2_t7_h23 + 4.99615666492031 * u2_t8_h23;
0 <= u2_t1_h11 <= 1;
0 <= u2_t1_h12 <= 1;
0 <= u2_t1_h13 <= 1;
0 <= u2_t1_h14 <= 1;
0 <= u2_t1_h15 <= 1;
0 <= u2_t1_h16 <= 1;
0 <= u2_t1_h17 <= 1;
0 <= u2_t1_h18 <= 1;
0 <= u2_t1_h19 <= 1;
0 <= u2_t1_h20 <= 1;
0 <= u2_t1_h21 <= 1;
0 <= u2_t1_h22 <= 1;
u2_t1_h11 + u2_t1_h12 + u2_t1_h13 + u2_t1_h14 + u2_t1_h15 + u2_t1_h16 + u2_t1_h17 + u2_t1_h18 + u2_t1_h19 + u2_t1_h20 + u2_t1_h21 + u2_t1_h22 = 2;
0 <= u2_t2_h5 <= 1;
0 <= u2_t2_h6 <= 1;
0 <= u2_t2_h7 <= 1;
0 <= u2_t2_h8 <= 1;
0 <= u2_t2_h9 <= 1;
0 <= u2_t2_h10 <= 1;
0 <= u2_t2_h11 <= 1;
u2_t2_h5 + u2_t2_h6 + u2_t2_h7 + u2_t2_h8 + u2_t2_h9 + u2_t2_h10 + u2_t2_h11 = 2;
0 <= u2_t3_h5 <= 1;
0 <= u2_t3_h6 <= 1;
0 <= u2_t3_h7 <= 1;
0 <= u2_t3_h8 <= 1;
0 <= u2_t3_h9 <= 1;
0 <= u2_t3_h10 <= 1;
0 <= u2_t3_h11 <= 1;
0 <= u2_t3_h12 <= 1;
0 <= u2_t3_h13 <= 1;
0 <= u2_t3_h14 <= 1;
0 <= u2_t3_h15 <= 1;
0 <= u2_t3_h16 <= 1;
0 <= u2_t3_h17 <= 1;
0 <= u2_t3_h18 <= 1;
0 <= u2_t3_h19 <= 1;
0 <= u2_t3_h20 <= 1;
0 <= u2_t3_h21 <= 1;
0 <= u2_t3_h22 <= 1;
0 <= u2_t3_h23 <= 1;
u2_t3_h5 + u2_t3_h6 + u2_t3_h7 + u2_t3_h8 + u2_t3_h9 + u2_t3_h10 + u2_t3_h11 + u2_t3_h12 + u2_t3_h13 + u2_t3_h14 + u2_t3_h15 + u2_t3_h16 + u2_t3_h17 + u2_t3_h18 + u2_t3_h19 + u2_t3_h20 + u2_t3_h21 + u2_t3_h22 + u2_t3_h23 = 1;
0 <= u2_t4_h6 <= 1;
0 <= u2_t4_h7 <= 1;
0 <= u2_t4_h8 <= 1;
0 <= u2_t4_h9 <= 1;
0 <= u2_t4_h10 <= 1;
0 <= u2_t4_h11 <= 1;
0 <= u2_t4_h12 <= 1;
0 <= u2_t4_h13 <= 1;
0 <= u2_t4_h14 <= 1;
0 <= u2_t4_h15 <= 1;
0 <= u2_t4_h16 <= 1;
0 <= u2_t4_h17 <= 1;
0 <= u2_t4_h18 <= 1;
0 <= u2_t4_h19 <= 1;
0 <= u2_t4_h20 <= 1;
u2_t4_h6 + u2_t4_h7 + u2_t4_h8 + u2_t4_h9 + u2_t4_h10 + u2_t4_h11 + u2_t4_h12 + u2_t4_h13 + u2_t4_h14 + u2_t4_h15 + u2_t4_h16 + u2_t4_h17 + u2_t4_h18 + u2_t4_h19 + u2_t4_h20 = 3;
0 <= u2_t5_h19 <= 1;
u2_t5_h19 = 1;
0 <= u2_t6_h18 <= 1;
0 <= u2_t6_h19 <= 1;
0 <= u2_t6_h20 <= 1;
0 <= u2_t6_h21 <= 1;
u2_t6_h18 + u2_t6_h19 + u2_t6_h20 + u2_t6_h21 = 2;
0 <= u2_t7_h3 <= 1;
0 <= u2_t7_h4 <= 1;
0 <= u2_t7_h5 <= 1;
0 <= u2_t7_h6 <= 1;
0 <= u2_t7_h7 <= 1;
0 <= u2_t7_h8 <= 1;
0 <= u2_t7_h9 <= 1;
0 <= u2_t7_h10 <= 1;
0 <= u2_t7_h11 <= 1;
0 <= u2_t7_h12 <= 1;
0 <= u2_t7_h13 <= 1;
0 <= u2_t7_h14 <= 1;
0 <= u2_t7_h15 <= 1;
0 <= u2_t7_h16 <= 1;
0 <= u2_t7_h17 <= 1;
0 <= u2_t7_h18 <= 1;
0 <= u2_t7_h19 <= 1;
0 <= u2_t7_h20 <= 1;
0 <= u2_t7_h21 <= 1;
0 <= u2_t7_h22 <= 1;
0 <= u2_t7_h23 <= 1;
u2_t7_h3 + u2_t7_h4 + u2_t7_h5 + u2_t7_h6 + u2_t7_h7 + u2_t7_h8 + u2_t7_h9 + u2_t7_h10 + u2_t7_h11 + u2_t7_h12 + u2_t7_h13 + u2_t7_h14 + u2_t7_h15 + u2_t7_h16 + u2_t7_h17 + u2_t7_h18 + u2_t7_h19 + u2_t7_h20 + u2_t7_h21 + u2_t7_h22 + u2_t7_h23 = 3;
0 <= u2_t8_h21 <= 1;
0 <= u2_t8_h22 <= 1;
0 <= u2_t8_h23 <= 1;
u2_t8_h21 + u2_t8_h22 + u2_t8_h23 = 2;
0 <= u2_t9_h13 <= 1;
0 <= u2_t9_h14 <= 1;
0 <= u2_t9_h15 <= 1;
0 <= u2_t9_h16 <= 1;
0 <= u2_t9_h17 <= 1;
u2_t9_h13 + u2_t9_h14 + u2_t9_h15 + u2_t9_h16 + u2_t9_h17 = 1;
0 <= u2_t10_h6 <= 1;
0 <= u2_t10_h7 <= 1;
0 <= u2_t10_h8 <= 1;
0 <= u2_t10_h9 <= 1;
0 <= u2_t10_h10 <= 1;
0 <= u2_t10_h11 <= 1;
u2_t10_h6 + u2_t10_h7 + u2_t10_h8 + u2_t10_h9 + u2_t10_h10 + u2_t10_h11 = 2;
